
Log started (V11.0.0) Sun Apr 13 14:02:06 2008

Tried aggregator 1 time.
Reduced MIP has 230 rows, 6001 columns, and 12030 nonzeros.
Presolve time =    0.05 sec.
Clique table members: 200.
MIP emphasis: balance optimality and feasibility.
MIP search method: dynamic search.
Parallel mode: none, using 1 thread.
Root relaxation solution time =    0.14 sec.

        Nodes                                         Cuts/
   Node  Left     Objective  IInf  Best Integer     Best Node    ItCnt     Gap

*     0+    0                         9911.0000       27.1388      709   99.73%
*     0+    0                           35.0000       27.1388      709   22.46%
      0     0       28.0000    40       35.0000      Fract: 7      723   20.00%
*     0+    0                           34.0000       28.0000      723   17.65%
      0     0       28.0000    45       34.0000   Impl Bds: 1      732   17.65%
      0     0       28.0000    51       34.0000       Cuts: 3      799   17.65%
*     0+    0                           33.0000       28.0000      799   15.15%
*     0+    0                           32.0000       28.0000      799   12.50%

Repeating presolve.
Tried aggregator 1 time.
MIP Presolve eliminated 0 rows and 4180 columns.
Reduced MIP has 230 rows, 1821 columns, and 3670 nonzeros.
Tried aggregator 1 time.
Represolve time =    0.06 sec.
Clique table members: 508.
MIP emphasis: balance optimality and feasibility.
MIP search method: dynamic search.
Parallel mode: none, using 1 thread.
Root relaxation solution time =    0.05 sec.

        Nodes                                         Cuts/
   Node  Left     Objective  IInf  Best Integer     Best Node    ItCnt     Gap

      0     0       28.0000    50       32.0000       28.0000      441   12.50%
      0     2       28.0000    50       32.0000       28.0000      441   12.50%
    100    98       29.0000    40       32.0000       28.0000     2207   12.50%
    200   186       30.0000    46       32.0000       28.0000     5208   12.50%
    300   264       29.0000    48       32.0000       28.0000     8089   12.50%
    400   356       30.0000    36       32.0000       28.0000    10437   12.50%
    500   436       29.0000    50       32.0000       29.0000    14802    9.37%
    600   418       30.0000   136       32.0000       29.0000    19596    9.37%
*   689+  236                           31.0000       29.0000    23995    6.45%
    700   239       29.0000    66       31.0000       29.0000    24345    6.45%
    800   257       30.0000    52       31.0000       29.0000    27317    6.45%
    900   259       30.0000    49       31.0000       29.0000    34078    6.45%
   1000   305       30.0000    34       31.0000       29.0000    39501    6.45%
Elapsed time =  14.80 sec. (tree size =  1.65 MB, solutions = 6)
   1100   382       30.0000    65       31.0000       29.0000    44898    6.45%
   1200   471       30.0000    38       31.0000       29.0000    48726    6.45%
   1300   549       29.0000    63       31.0000       29.0000    53903    6.45%
*  1389+  197                           30.0000       29.0000    57255    3.33%
   1400   208       29.0000    70       30.0000       29.0000    58036    3.33%
   1500   290       29.0000    87       30.0000       29.0000    64784    3.33%
   1600   374       29.0000    55       30.0000       29.0000    70874    3.33%
   1700   460       29.0000   105       30.0000       29.0000    76385    3.33%
   1800   538       29.0000   109       30.0000       29.0000    86754    3.33%
   1900   624       29.0000    67       30.0000       29.0000    94018    3.33%
   2000   698       29.0000    68       30.0000       29.0000   104500    3.33%
Elapsed time =  30.55 sec. (tree size =  5.26 MB, solutions = 7)
   2100   782       29.0000   104       30.0000       29.0000   113449    3.33%
*  2189+    0                           29.0000       29.0000   121917    0.00%

Clique cuts applied:  5
Cover cuts applied:  552
Implied bound cuts applied:  1
Flow cuts applied:  1
Mixed integer rounding cuts applied:  50
Zero-half cuts applied:  4
Gomory fractional cuts applied:  13

Solution pool: 8 solutions saved.

MIP - Integer optimal solution:  Objective = 2.9000000000e+001
Solution time =   35.47 sec.  Iterations = 121917  Nodes = 2189


Incumbent solution
Variable Name           Solution Value
Cmax                         29.000000
X_1_25                        1.000000
X_2_19                        1.000000
X_3_28                        1.000000
X_4_24                        1.000000
X_5_1                         1.000000
X_6_16                        1.000000
X_7_23                        1.000000
X_8_11                        1.000000
X_9_19                        1.000000
X_10_14                       1.000000
X_11_24                       1.000000
X_12_23                       1.000000
X_13_25                       1.000000
X_14_24                       1.000000
X_15_12                       1.000000
X_16_10                       1.000000
X_17_6                        1.000000
X_18_26                       1.000000
X_19_20                       1.000000
X_20_30                       1.000000
X_21_30                       1.000000
X_22_4                        1.000000
X_23_2                        1.000000
X_24_11                       1.000000
X_25_10                       1.000000
X_26_3                        1.000000
X_27_15                       1.000000
X_28_1                        1.000000
X_29_22                       1.000000
X_30_29                       1.000000
X_31_23                       1.000000
X_32_1                        1.000000
X_33_27                       1.000000
X_34_22                       1.000000
X_35_27                       1.000000
X_36_13                       1.000000
X_37_7                        1.000000
X_38_22                       1.000000
X_39_9                        1.000000
X_40_15                       1.000000
X_41_6                        1.000000
X_42_10                       1.000000
X_43_4                        1.000000
X_44_7                        1.000000
X_45_13                       1.000000
X_46_12                       1.000000
X_47_20                       1.000000
X_48_8                        1.000000
X_49_23                       1.000000
X_50_21                       1.000000
X_51_22                       1.000000
X_52_9                        1.000000
X_53_15                       1.000000
X_54_26                       1.000000
X_55_8                        1.000000
X_56_14                       1.000000
X_57_18                       1.000000
X_58_18                       1.000000
X_59_28                       1.000000
X_60_29                       1.000000
X_61_8                        1.000000
X_62_17                       1.000000
X_63_25                       1.000000
X_64_13                       1.000000
X_65_3                        1.000000
X_66_17                       1.000000
X_67_20                       1.000000
X_68_14                       1.000000
X_69_19                       1.000000
X_70_6                        1.000000
X_71_6                        1.000000
X_72_18                       1.000000
X_73_9                        1.000000
X_74_17                       1.000000
X_75_23                       1.000000
X_76_28                       1.000000
X_77_25                       1.000000
X_78_12                       1.000000
X_79_8                        1.000000
X_80_21                       1.000000
X_81_11                       1.000000
X_82_29                       1.000000
X_83_16                       1.000000
X_84_28                       1.000000
X_85_18                       1.000000
X_86_21                       1.000000
X_87_11                       1.000000
X_88_30                       1.000000
X_89_1                        1.000000
X_90_23                       1.000000
X_91_22                       1.000000
X_92_17                       1.000000
X_93_30                       1.000000
X_94_7                        1.000000
X_95_19                       1.000000
X_96_8                        1.000000
X_97_3                        1.000000
X_98_30                       1.000000
X_99_6                        1.000000
X_100_6                       1.000000
X_101_8                       1.000000
X_102_25                      1.000000
X_103_7                       1.000000
X_104_30                      1.000000
X_105_11                      1.000000
X_106_25                      1.000000
X_107_21                      1.000000
X_108_26                      1.000000
X_109_27                      1.000000
X_110_9                       1.000000
X_111_11                      1.000000
X_112_17                      1.000000
X_113_2                       1.000000
X_114_17                      1.000000
X_115_27                      1.000000
X_116_23                      1.000000
X_117_13                      1.000000
X_118_24                      1.000000
X_119_1                       1.000000
X_120_6                       1.000000
X_121_20                      1.000000
X_122_22                      1.000000
X_123_27                      1.000000
X_124_26                      1.000000
X_125_2                       1.000000
X_126_9                       1.000000
X_127_20                      1.000000
X_128_21                      1.000000
X_129_30                      1.000000
X_130_3                       1.000000
X_131_29                      1.000000
X_132_7                       1.000000
X_133_12                      1.000000
X_134_30                      1.000000
X_135_19                      1.000000
X_136_10                      1.000000
X_137_28                      1.000000
X_138_10                      1.000000
X_139_9                       1.000000
X_140_27                      1.000000
X_141_15                      1.000000
X_142_4                       1.000000
X_143_15                      1.000000
X_144_3                       1.000000
X_145_12                      1.000000
X_146_24                      1.000000
X_147_26                      1.000000
X_148_5                       1.000000
X_149_23                      1.000000
X_150_3                       1.000000
X_151_16                      1.000000
X_152_13                      1.000000
X_153_7                       1.000000
X_154_26                      1.000000
X_155_11                      1.000000
X_156_9                       1.000000
X_157_28                      1.000000
X_158_8                       1.000000
X_159_27                      1.000000
X_160_24                      1.000000
X_161_2                       1.000000
X_162_6                       1.000000
X_163_13                      1.000000
X_164_2                       1.000000
X_165_2                       1.000000
X_166_20                      1.000000
X_167_12                      1.000000
X_168_12                      1.000000
X_169_13                      1.000000
X_170_25                      1.000000
X_171_26                      1.000000
X_172_22                      1.000000
X_173_30                      1.000000
X_174_11                      1.000000
X_175_11                      1.000000
X_176_6                       1.000000
X_177_6                       1.000000
X_178_19                      1.000000
X_179_18                      1.000000
X_180_21                      1.000000
X_181_19                      1.000000
X_182_20                      1.000000
X_183_26                      1.000000
X_184_29                      1.000000
X_185_17                      1.000000
X_186_7                       1.000000
X_187_15                      1.000000
X_188_19                      1.000000
X_189_26                      1.000000
X_190_27                      1.000000
X_191_26                      1.000000
X_192_10                      1.000000
X_193_18                      1.000000
X_194_18                      1.000000
X_195_23                      1.000000
X_196_7                       1.000000
X_197_12                      1.000000
X_198_21                      1.000000
X_199_1                       1.000000
X_200_4                       1.000000
All other variables in the range 1-6001 are 0.
